(set-logic QF_S)
(declare-fun var0 () String)
(declare-fun var1 () Int)
(declare-fun var2 () Int)
(declare-fun var3 () Int)
(declare-fun var4 () String)
(declare-fun var5 () String)
(declare-fun var6 () Int)
(declare-fun var7 () String)
(assert (str.in.re (str.at var0 var1) (re.+ re.allchar)))
(assert (< var2 var3))
(assert (str.contains (str.at var4 200) (str.substr var5 var6 var1)))
(assert (>= (str.len var7) (str.to.int (str.replace var7 var0 "'@M6=/j"))))
(check-sat)